1
1 0
587 233 220
30
1 97 0 81 0 27 1 2
2 102 0 78 0 39 1 4
3 113 0 46 1 36 1 5
4 66 1 50 1 42 1 5
5 101 0 30 1 26 1 7
6 100 0 56 1 35 1 4
7 91 0 50 1 40 1 7
8 106 1 61 1 56 1 3
9 103 1 63 1 58 1 5
10 75 1 57 1 41 1 3
11 71 1 68 1 64 1 6
12 85 0 67 1 39 1 4
13 97 1 63 1 56 1 5
14 61 0 48 1 30 1 4
15 80 0 54 1 35 1 2
16 73 1 66 1 62 1 3
17 90 1 74 1 69 1 2
18 118 0 61 1 40 1 7
19 94 0 43 1 31 1 4
20 90 0 49 1 30 1 4
21 61 0 43 0 20 1 2
22 74 1 73 1 59 1 3
23 58 1 53 1 51 1 7
24 100 1 62 1 53 1 6
25 64 1 46 1 45 1 10
26 83 0 71 0 34 1 4
27 80 0 51 1 34 1 4
28 71 1 60 1 46 1 4
29 113 0 56 1 46 1 4
30 110 0 76 0 31 1 7

